# 44388
param k := 6;
param n := 50;
param s := 1;
set E :=  (0,8) (1,27) (1,42) (1,45) (1,47) (2,13) (2,34) (2,38) (3,31) (3,34) (4,23) (4,46) (5,22) (5,46) (6,30) (7,29) (7,48) (8,12) (8,19) (8,48) (9,14) (9,15) (10,37) (11,17) (11,35) (11,36) (11,38) (11,39) (12,32) (12,45) (12,47) (13,21) (13,49) (14,19) (14,23) (15,18) (15,24) (15,33) (16,22) (16,38) (18,19) (18,44) (19,28) (20,32) (20,41) (21,25) (21,36) (22,39) (23,42) (23,47) (24,35) (24,40) (25,42) (26,43) (28,31) (28,39) (30,36) (33,37) (33,44) (39,43) (39,46) (41,43) (41,46);